DIMACS2
40 378 526 539 128 55 290 320 625 634 312 192 490 334 261 581 453 337 589 244 50 154 439 628 291 6 185 372 587 597 314 79 175 494 260 349 186 165 400 580 610
p edge 640 1767
e 0 513 4.0
e 0 579 4.0
e 1 264 1.0
e 1 447 1.0
e 2 312 22.0
e 2 501 1.0
e 3 315 1.0
e 3 194 2.0
e 4 494 46.0
e 4 531 1.0
e 5 155 1.0
e 5 444 1.0
e 6 366 7.0
e 6 36 24.0
e 6 259 35.0
e 6 283 26.0
e 6 584 8.0
e 6 413 9.0
e 6 52 25.0
e 6 472 33.0
e 6 44 28.0
e 6 164 38.0
e 6 317 33.0
e 6 224 11.0
e 6 311 16.0
e 6 554 4.0
e 6 49 27.0
e 6 179 11.0
e 6 601 25.0
e 7 258 2.0
e 7 72 2.0
e 8 222 2.0
e 8 267 1.0
e 9 427 2.0
e 9 280 1.0
e 10 584 4.0
e 10 286 1.0
e 11 273 1.0
e 11 60 1.0
e 12 273 1.0
e 12 367 1.0
e 13 330 1.0
e 13 229 1.0
e 14 563 2.0
e 14 409 2.0
e 15 162 1.0
e 15 408 1.0
e 16 245 1.0
e 16 477 2.0
e 17 434 1.0
e 17 273 1.0
e 18 460 1.0
e 18 44 2.0
e 19 306 2.0
e 19 49 1.0
e 20 48 1.0
e 20 385 1.0
e 21 369 1.0
e 21 426 3.0
e 22 237 3.0
e 22 278 2.0
e 23 89 1.0
e 23 243 1.0
e 24 244 8.0
e 24 18 2.0
e 25 245 1.0
e 25 602 2.0
e 26 364 1.0
e 26 531 1.0
e 27 60 2.0
e 27 620 2.0
e 28 353 2.0
e 28 223 1.0
e 29 504 2.0
e 29 248 1.0
e 30 523 2.0
e 30 263 1.0
e 31 325 1.0
e 31 118 1.0
e 32 213 1.0
e 32 415 1.0
e 33 343 4.0
e 33 197 2.0
e 34 229 1.0
e 34 360 3.0
e 35 338 1.0
e 35 81 1.0
e 36 94 1.0
e 36 221 2.0
e 37 51 1.0
e 37 180 1.0
e 38 355 3.0
e 38 107 2.0
e 39 458 1.0
e 39 251 1.0
e 40 346 1.0
e 40 322 3.0
e 41 72 2.0
e 41 377 1.0
e 42 122 1.0
e 42 290 13.0
e 43 436 1.0
e 43 622 1.0
e 44 319 1.0
e 44 389 3.0
e 45 546 1.0
e 45 208 1.0
e 46 337 38.0
e 46 245 1.0
e 47 78 4.0
e 47 41 1.0
e 48 450 1.0
e 48 160 1.0
e 49 471 1.0
e 49 477 2.0
e 50 42 27.0
e 50 487 22.0
e 50 83 14.0
e 50 366 4.0
e 50 253 28.0
e 50 96 27.0
e 50 464 6.0
e 50 252 10.0
e 50 209 27.0
e 50 291 1.0
e 50 422 27.0
e 50 354 9.0
e 50 423 22.0
e 50 517 15.0
e 50 189 26.0
e 51 389 1.0
e 51 574 5.0
e 52 221 1.0
e 52 233 1.0
e 53 340 1.0
e 53 434 1.0
e 54 358 1.0
e 54 493 1.0
e 55 284 22.0
e 55 254 3.0
e 55 275 10.0
e 55 580 4.0
e 55 555 9.0
e 55 581 3.0
e 55 363 31.0
e 55 136 43.0
e 55 233 19.0
e 55 19 17.0
e 55 394 32.0
e 55 152 26.0
e 55 198 32.0
e 55 269 14.0
e 55 459 7.0
e 55 309 32.0
e 55 158 4.0
e 56 307 2.0
e 56 351 2.0
e 57 144 1.0
e 57 402 1.0
e 58 522 1.0
e 58 202 1.0
e 59 13 1.0
e 59 289 1.0
e 60 24 1.0
e 60 509 2.0
e 61 591 1.0
e 61 466 1.0
e 62 305 5.0
e 62 149 1.0
e 63 513 1.0
e 63 212 1.0
e 64 411 2.0
e 64 535 1.0
e 65 190 1.0
e 65 528 4.0
e 66 559 1.0
e 66 404 1.0
e 67 58 1.0
e 67 450 1.0
e 68 479 1.0
e 68 153 1.0
e 69 334 43.0
e 69 610 36.0
e 70 619 2.0
e 70 350 1.0
e 71 64 2.0
e 71 315 1.0
e 72 574 3.0
e 72 132 1.0
e 73 520 1.0
e 73 555 1.0
e 74 621 1.0
e 74 635 1.0
e 75 213 1.0
e 75 64 1.0
e 76 521 2.0
e 76 427 2.0
e 77 466 3.0
e 77 439 23.0
e 77 317 5.0
e 78 621 1.0
e 78 209 2.0
e 79 544 36.0
e 79 485 26.0
e 79 67 32.0
e 79 98 34.0
e 79 525 3.0
e 79 442 30.0
e 79 488 23.0
e 79 348 19.0
e 79 586 2.0
e 79 164 43.0
e 79 136 34.0
e 79 102 44.0
e 79 526 17.0
e 79 20 18.0
e 79 334 9.0
e 80 577 2.0
e 80 425 1.0
e 81 212 1.0
e 81 42 1.0
e 82 299 2.0
e 82 48 2.0
e 83 359 1.0
e 83 300 1.0
e 84 495 1.0
e 84 208 1.0
e 85 206 2.0
e 85 220 1.0
e 86 127 1.0
e 86 441 1.0
e 87 1 1.0
e 87 493 1.0
e 88 63 1.0
e 88 21 2.0
e 89 292 1.0
e 89 419 1.0
e 90 553 1.0
e 90 3 2.0
e 91 257 1.0
e 91 350 1.0
e 92 359 2.0
e 92 580 17.0
e 93 174 2.0
e 93 307 1.0
e 94 538 2.0
e 94 620 2.0
e 95 167 2.0
e 95 131 2.0
e 96 61 5.0
e 96 43 4.0
e 97 244 37.0
e 97 62 1.0
e 98 128 37.0
e 98 364 1.0
e 99 261 1.0
e 99 516 2.0
e 99 128 40.0
e 100 573 3.0
e 100 360 1.0
e 101 495 1.0
e 101 359 1.0
e 102 253 2.0
e 102 583 2.0
e 103 128 11.0
e 103 364 4.0
e 104 284 1.0
e 104 404 1.0
e 105 588 1.0
e 105 28 1.0
e 106 459 1.0
e 106 510 2.0
e 107 314 20.0
e 107 438 1.0
e 108 343 2.0
e 108 386 1.0
e 109 227 2.0
e 109 135 2.0
e 110 120 3.0
e 110 142 1.0
e 111 325 1.0
e 111 236 1.0
e 112 638 1.0
e 112 133 1.0
e 113 274 1.0
e 113 622 1.0
e 114 524 1.0
e 114 636 1.0
e 115 289 5.0
e 115 619 1.0
e 116 37 1.0
e 116 263 1.0
e 117 33 2.0
e 117 433 1.0
e 118 345 1.0
e 118 144 1.0
e 119 143 1.0
e 119 327 1.0
e 120 359 1.0
e 120 638 1.0
e 121 62 3.0
e 121 14 1.0
e 122 429 1.0
e 122 43 2.0
e 123 578 1.0
e 123 199 1.0
e 124 426 2.0
e 124 293 1.0
e 125 234 1.0
e 125 283 5.0
e 126 127 1.0
e 126 63 1.0
e 127 297 3.0
e 127 141 1.0
e 128 97 30.0
e 128 317 10.0
e 128 343 19.0
e 128 217 17.0
e 128 309 47.0
e 128 475 5.0
e 128 294 48.0
e 128 9 39.0
e 128 165 43.0
e 128 84 45.0
e 129 345 1.0
e 129 254 1.0
e 130 304 1.0
e 130 47 1.0
e 131 313 1.0
e 131 56 1.0
e 132 283 1.0
e 132 516 1.0
e 133 97 1.0
e 133 363 1.0
e 134 305 1.0
e 134 601 1.0
e 135 144 2.0
e 135 423 2.0
e 136 367 1.0
e 136 38 1.0
e 137 293 1.0
e 137 336 1.0
e 138 245 1.0
e 138 248 1.0
e 139 187 1.0
e 139 410 1.0
e 140 494 21.0
e 140 535 4.0
e 141 167 1.0
e 141 66 1.0
e 142 215 1.0
e 142 303 1.0
e 143 182 1.0
e 143 596 1.0
e 144 325 1.0
e 144 39 1.0
e 145 213 1.0
e 145 93 2.0
e 146 548 1.0
e 146 367 1.0
e 147 471 1.0
e 147 579 2.0
e 148 521 1.0
e 148 355 1.0
e 149 262 2.0
e 149 403 1.0
e 150 13 1.0
e 150 509 1.0
e 151 351 1.0
e 151 127 1.0
e 152 236 1.0
e 152 18 1.0
e 153 378 37.0
e 153 592 2.0
e 154 508 8.0
e 154 489 39.0
e 154 613 14.0
e 154 192 19.0
e 154 23 49.0
e 154 549 10.0
e 154 294 17.0
e 154 432 22.0
e 154 203 27.0
e 154 274 10.0
e 154 540 47.0
e 154 21 6.0
e 154 486 37.0
e 154 507 14.0
e 154 74 42.0
e 154 36 49.0
e 155 205 1.0
e 155 368 1.0
e 156 130 1.0
e 156 453 34.0
e 157 428 1.0
e 157 421 1.0
e 158 544 1.0
e 158 323 1.0
e 159 91 1.0
e 159 50 18.0
e 160 75 1.0
e 160 299 1.0
e 161 609 1.0
e 161 633 1.0
e 162 222 2.0
e 162 346 1.0
e 163 33 2.0
e 163 140 3.0
e 164 142 1.0
e 164 462 1.0
e 165 96 33.0
e 165 598 20.0
e 165 297 10.0
e 165 267 15.0
e 165 349 20.0
e 165 129 35.0
e 165 422 7.0
e 165 154 43.0
e 165 148 39.0
e 165 209 35.0
e 165 138 8.0
e 165 407 38.0
e 166 351 2.0
e 166 590 1.0
e 167 265 1.0
e 167 480 1.0
e 168 213 1.0
e 168 160 1.0
e 169 435 1.0
e 169 15 1.0
e 170 105 1.0
e 170 406 1.0
e 171 48 1.0
e 171 76 1.0
e 172 173 1.0
e 172 548 1.0
e 173 26 1.0
e 173 552 1.0
e 174 157 1.0
e 174 393 1.0
e 175 595 38.0
e 175 305 11.0
e 175 376 37.0
e 175 481 20.0
e 175 512 15.0
e 175 526 36.0
e 175 448 30.0
e 175 235 23.0
e 175 174 34.0
e 175 304 41.0
e 175 505 37.0
e 175 244 21.0
e 175 298 8.0
e 175 467 47.0
e 175 302 27.0
e 176 163 1.0
e 176 135 1.0
e 177 173 1.0
e 177 525 2.0
e 178 194 1.0
e 178 470 2.0
e 179 492 1.0
e 179 38 1.0
e 180 157 1.0
e 180 478 1.0
e 181 612 1.0
e 181 581 25.0
e 182 163 1.0
e 182 123 1.0
e 183 456 1.0
e 183 446 1.0
e 184 528 1.0
e 184 275 3.0
e 185 47 2.0
e 185 506 21.0
e 185 398 36.0
e 185 479 29.0
e 185 119 21.0
e 185 106 25.0
e 185 517 36.0
e 185 124 47.0
e 185 12 37.0
e 185 448 10.0
e 185 442 32.0
e 185 486 15.0
e 185 285 3.0
e 185 33 28.0
e 185 463 12.0
e 185 218 31.0
e 186 426 7.0
e 186 226 38.0
e 186 55 8.0
e 186 349 44.0
e 186 220 6.0
e 186 611 39.0
e 186 295 28.0
e 186 210 42.0
e 186 198 46.0
e 186 357 21.0
e 186 77 8.0
e 186 518 39.0
e 186 70 40.0
e 186 494 1.0
e 186 5 7.0
e 186 540 17.0
e 186 79 2.0
e 187 438 1.0
e 187 81 1.0
e 188 153 1.0
e 188 165 30.0
e 189 146 1.0
e 189 400 44.0
e 190 54 1.0
e 190 466 1.0
e 191 68 1.0
e 191 367 1.0
e 192 295 32.0
e 192 4 39.0
e 192 203 12.0
e 192 329 43.0
e 192 139 20.0
e 192 626 46.0
e 192 287 46.0
e 192 170 36.0
e 192 186 15.0
e 192 19 28.0
e 192 519 23.0
e 192 439 26.0
e 192 482 18.0
e 192 394 42.0
e 193 23 2.0
e 193 162 1.0
e 194 218 1.0
e 194 514 2.0
e 195 104 1.0
e 195 130 1.0
e 196 42 1.0
e 196 550 1.0
e 197 410 1.0
e 197 296 1.0
e 198 101 1.0
e 198 348 1.0
e 199 155 1.0
e 199 441 2.0
e 200 355 2.0
e 200 216 1.0
e 201 242 1.0
e 201 43 1.0
e 202 276 1.0
e 202 372 14.0
e 203 82 1.0
e 203 128 32.0
e 204 73 1.0
e 204 195 1.0
e 205 511 1.0
e 205 7 1.0
e 206 192 30.0
e 206 486 1.0
e 207 133 2.0
e 207 126 1.0
e 208 206 3.0
e 208 467 1.0
e 209 345 1.0
e 209 463 2.0
e 210 211 2.0
e 210 50 37.0
e 211 61 1.0
e 211 261 38.0
e 212 41 2.0
e 212 315 1.0
e 213 433 1.0
e 213 57 1.0
e 214 401 2.0
e 214 550 1.0
e 215 194 2.0
e 215 184 1.0
e 216 623 1.0
e 216 310 1.0
e 217 122 1.0
e 217 86 1.0
e 218 92 2.0
e 218 268 1.0
e 219 333 1.0
e 219 214 1.0
e 220 530 2.0
e 220 310 2.0
e 221 502 2.0
e 221 241 2.0
e 222 547 1.0
e 222 140 3.0
e 223 228 1.0
e 223 173 1.0
e 224 448 1.0
e 224 100 1.0
e 225 415 2.0
e 225 240 1.0
e 226 612 2.0
e 226 451 2.0
e 227 470 2.0
e 227 154 6.0
e 228 335 1.0
e 228 171 1.0
e 229 232 1.0
e 229 339 1.0
e 230 352 1.0
e 230 57 1.0
e 231 575 1.0
e 231 437 1.0
e 232 4 1.0
e 232 265 2.0
e 233 143 1.0
e 233 519 1.0
e 234 499 1.0
e 234 9 1.0
e 235 14 1.0
e 235 559 1.0
e 236 260 29.0
e 236 122 1.0
e 237 574 1.0
e 237 320 23.0
e 238 490 10.0
e 238 136 1.0
e 239 302 1.0
e 239 31 1.0
e 240 288 1.0
e 240 30 1.0
e 241 419 1.0
e 241 439 20.0
e 242 551 1.0
e 242 428 1.0
e 243 196 2.0
e 243 53 1.0
e 244 11 25.0
e 244 552 45.0
e 244 453 43.0
e 244 249 27.0
e 244 252 5.0
e 244 357 7.0
e 244 239 24.0
e 244 272 29.0
e 244 311 29.0
e 244 154 6.0
e 244 379 35.0
e 244 580 31.0
e 244 496 21.0
e 245 625 7.0
e 245 95 2.0
e 246 634 4.0
e 246 400 36.0
e 247 284 1.0
e 247 513 1.0
e 248 600 1.0
e 248 431 1.0
e 249 47 2.0
e 249 286 1.0
e 250 594 1.0
e 250 504 1.0
e 251 57 1.0
e 251 126 1.0
e 252 126 1.0
e 252 261 13.0
e 253 190 1.0
e 253 350 1.0
e 254 117 3.0
e 254 273 2.0
e 255 555 1.0
e 255 290 26.0
e 256 366 1.0
e 256 28 1.0
e 257 301 1.0
e 257 584 11.0
e 258 580 46.0
e 258 360 2.0
e 259 391 1.0
e 259 375 1.0
e 260 291 44.0
e 260 192 22.0
e 260 457 5.0
e 260 534 1.0
e 260 259 41.0
e 260 32 41.0
e 260 371 22.0
e 260 365 36.0
e 260 547 36.0
e 260 193 22.0
e 260 107 16.0
e 260 121 9.0
e 260 548 49.0
e 260 241 15.0
e 260 15 46.0
e 261 266 44.0
e 261 177 14.0
e 261 295 34.0
e 261 148 18.0
e 261 120 47.0
e 261 519 45.0
e 261 479 27.0
e 261 165 34.0
e 261 116 31.0
e 261 158 16.0
e 261 269 23.0
e 261 225 14.0
e 262 217 2.0
e 262 150 1.0
e 263 401 1.0
e 263 508 1.0
e 264 234 2.0
e 264 356 1.0
e 265 606 2.0
e 265 82 1.0
e 266 514 2.0
e 266 178 1.0
e 267 492 1.0
e 267 556 2.0
e 268 345 1.0
e 268 73 1.0
e 269 627 1.0
e 269 565 1.0
e 270 169 1.0
e 270 226 2.0
e 271 266 1.0
e 271 590 1.0
e 272 177 1.0
e 272 411 1.0
e 273 142 1.0
e 273 266 1.0
e 274 383 2.0
e 274 635 1.0
e 275 25 1.0
e 275 371 3.0
e 276 163 2.0
e 276 342 2.0
e 277 245 1.0
e 277 550 2.0
e 278 532 1.0
e 278 429 1.0
e 279 234 1.0
e 279 303 1.0
e 280 90 1.0
e 280 46 1.0
e 281 386 1.0
e 281 413 1.0
e 282 173 1.0
e 282 96 3.0
e 283 405 5.0
e 283 334 17.0
e 284 412 1.0
e 284 261 29.0
e 285 474 1.0
e 285 291 30.0
e 286 75 1.0
e 286 588 1.0
e 287 76 1.0
e 287 515 1.0
e 288 319 1.0
e 288 53 1.0
e 289 318 2.0
e 289 406 3.0
e 290 498 13.0
e 290 11 29.0
e 290 274 2.0
e 290 5 30.0
e 290 314 37.0
e 290 261 34.0
e 290 117 29.0
e 290 341 33.0
e 290 189 11.0
e 290 400 26.0
e 290 567 6.0
e 290 626 8.0
e 290 237 11.0
e 290 154 7.0
e 291 30 27.0
e 291 93 10.0
e 291 449 47.0
e 291 341 37.0
e 291 549 43.0
e 291 475 9.0
e 291 40 12.0
e 291 601 48.0
e 291 624 10.0
e 291 297 46.0
e 291 500 17.0
e 291 227 18.0
e 291 553 36.0
e 292 386 1.0
e 292 480 1.0
e 293 483 1.0
e 293 501 2.0
e 294 83 2.0
e 294 618 1.0
e 295 130 1.0
e 295 456 2.0
e 296 518 1.0
e 296 637 1.0
e 297 525 1.0
e 297 78 1.0
e 298 552 1.0
e 298 356 1.0
e 299 469 1.0
e 299 35 1.0
e 300 473 1.0
e 300 312 2.0
e 301 182 1.0
e 301 188 1.0
e 302 57 1.0
e 302 521 1.0
e 303 506 1.0
e 303 342 1.0
e 304 376 2.0
e 304 307 1.0
e 305 56 1.0
e 305 445 3.0
e 306 25 1.0
e 306 300 2.0
e 307 76 2.0
e 307 637 1.0
e 308 78 1.0
e 308 623 2.0
e 309 159 1.0
e 309 491 1.0
e 310 74 2.0
e 310 537 1.0
e 311 146 2.0
e 311 595 2.0
e 312 504 31.0
e 312 1 28.0
e 312 176 15.0
e 312 394 44.0
e 312 580 13.0
e 312 132 49.0
e 312 340 18.0
e 312 260 9.0
e 312 227 10.0
e 312 237 30.0
e 312 139 13.0
e 312 158 25.0
e 312 301 46.0
e 313 333 2.0
e 313 421 2.0
e 314 147 40.0
e 314 431 24.0
e 314 272 18.0
e 314 180 23.0
e 314 159 47.0
e 314 289 4.0
e 314 505 35.0
e 314 326 38.0
e 314 64 11.0
e 314 22 11.0
e 314 32 21.0
e 314 281 21.0
e 314 585 4.0
e 314 556 26.0
e 314 452 30.0
e 315 319 1.0
e 315 537 1.0
e 316 202 1.0
e 316 331 2.0
e 317 328 3.0
e 317 562 4.0
e 318 270 1.0
e 318 216 1.0
e 319 110 4.0
e 319 414 1.0
e 320 574 3.0
e 320 293 10.0
e 320 287 16.0
e 320 159 17.0
e 320 17 30.0
e 320 278 18.0
e 320 186 14.0
e 320 347 30.0
e 320 321 5.0
e 320 443 25.0
e 320 512 29.0
e 320 255 33.0
e 320 193 5.0
e 320 330 29.0
e 320 614 46.0
e 321 270 1.0
e 321 591 1.0
e 322 538 1.0
e 322 131 1.0
e 323 321 1.0
e 323 575 1.0
e 324 214 1.0
e 324 243 1.0
e 325 62 1.0
e 325 528 1.0
e 326 480 1.0
e 326 600 1.0
e 327 178 1.0
e 327 527 1.0
e 328 544 1.0
e 328 455 1.0
e 329 352 1.0
e 329 327 1.0
e 330 550 1.0
e 330 268 2.0
e 331 54 1.0
e 331 629 1.0
e 332 304 1.0
e 332 26 1.0
e 333 245 1.0
e 333 570 1.0
e 334 619 6.0
e 334 606 30.0
e 334 210 9.0
e 334 476 30.0
e 334 80 23.0
e 334 349 7.0
e 334 533 37.0
e 334 269 22.0
e 334 443 23.0
e 334 77 35.0
e 334 6 15.0
e 334 313 17.0
e 334 168 9.0
e 335 636 1.0
e 335 191 1.0
e 336 625 19.0
e 336 449 1.0
e 337 400 42.0
e 337 554 39.0
e 337 334 42.0
e 337 388 30.0
e 337 395 4.0
e 337 507 21.0
e 337 560 29.0
e 337 98 15.0
e 337 387 30.0
e 337 353 22.0
e 337 120 43.0
e 337 298 39.0
e 337 88 25.0
e 337 230 21.0
e 337 381 47.0
e 338 593 1.0
e 338 153 1.0
e 339 536 3.0
e 339 612 1.0
e 340 71 2.0
e 340 307 1.0
e 341 478 1.0
e 341 545 1.0
e 342 375 1.0
e 342 211 1.0
e 343 256 1.0
e 343 577 1.0
e 344 59 2.0
e 344 453 43.0
e 345 440 1.0
e 345 10 1.0
e 346 338 1.0
e 346 592 2.0
e 347 52 1.0
e 347 466 1.0
e 348 66 3.0
e 348 183 3.0
e 349 418 29.0
e 349 635 10.0
e 349 316 29.0
e 349 92 36.0
e 349 204 31.0
e 349 183 11.0
e 349 65 23.0
e 349 318 5.0
e 349 580 28.0
e 349 335 35.0
e 349 241 15.0
e 349 232 40.0
e 349 311 42.0
e 349 177 14.0
e 350 260 20.0
e 350 410 2.0
e 351 219 1.0
e 351 207 1.0
e 352 595 1.0
e 352 395 2.0
e 353 83 1.0
e 353 404 2.0
e 354 91 1.0
e 354 402 1.0
e 355 184 1.0
e 355 593 1.0
e 356 592 1.0
e 356 204 1.0
e 357 181 1.0
e 357 216 2.0
e 358 393 2.0
e 358 436 1.0
e 359 94 1.0
e 359 265 2.0
e 360 491 1.0
e 360 200 1.0
e 361 571 1.0
e 361 369 1.0
e 362 282 1.0
e 362 506 1.0
e 363 165 1.0
e 363 108 3.0
e 364 1 1.0
e 364 205 1.0
e 365 222 3.0
e 365 88 2.0
e 366 338 1.0
e 366 638 5.0
e 367 247 1.0
e 367 328 1.0
e 368 252 1.0
e 368 391 1.0
e 369 28 1.0
e 369 201 1.0
e 370 358 1.0
e 370 630 1.0
e 371 165 19.0
e 371 635 2.0
e 372 506 23.0
e 372 236 2.0
e 372 161 8.0
e 372 497 10.0
e 372 291 49.0
e 372 100 28.0
e 372 255 35.0
e 372 249 25.0
e 372 418 38.0
e 372 494 23.0
e 372 357 24.0
e 372 115 25.0
e 372 593 29.0
e 372 203 23.0
e 372 230 22.0
e 372 165 5.0
e 373 553 1.0
e 373 235 1.0
e 374 126 1.0
e 374 266 1.0
e 375 94 2.0
e 375 228 1.0
e 376 482 1.0
e 376 474 1.0
e 377 219 1.0
e 377 10 2.0
e 378 614 8.0
e 378 584 14.0
e 378 536 49.0
e 378 417 40.0
e 378 580 41.0
e 378 594 10.0
e 378 262 20.0
e 378 415 38.0
e 378 77 2.0
e 378 602 25.0
e 378 581 7.0
e 378 437 26.0
e 378 371 42.0
e 378 317 47.0
e 378 607 41.0
e 379 328 1.0
e 379 95 1.0
e 380 444 1.0
e 380 137 1.0
e 381 336 2.0
e 381 11 1.0
e 382 472 1.0
e 382 414 1.0
e 383 636 1.0
e 383 193 2.0
e 384 251 2.0
e 384 28 1.0
e 385 595 2.0
e 385 578 1.0
e 386 470 1.0
e 386 473 1.0
e 387 39 1.0
e 387 354 2.0
e 388 100 1.0
e 388 390 1.0
e 389 393 1.0
e 389 473 1.0
e 390 501 1.0
e 390 160 1.0
e 391 140 5.0
e 391 288 1.0
e 392 199 1.0
e 392 310 3.0
e 393 542 2.0
e 393 524 2.0
e 394 485 1.0
e 394 518 2.0
e 395 277 1.0
e 395 386 1.0
e 396 128 7.0
e 396 500 1.0
e 397 592 2.0
e 397 514 2.0
e 398 488 1.0
e 398 628 3.0
e 399 458 1.0
e 399 424 1.0
e 400 60 39.0
e 400 610 32.0
e 400 65 49.0
e 400 452 17.0
e 400 639 11.0
e 400 396 19.0
e 400 161 22.0
e 400 324 10.0
e 400 185 43.0
e 400 275 45.0
e 400 109 10.0
e 400 539 45.0
e 401 240 2.0
e 401 244 26.0
e 402 247 3.0
e 402 462 2.0
e 403 119 1.0
e 403 212 3.0
e 404 577 1.0
e 404 554 1.0
e 405 151 1.0
e 405 420 1.0
e 406 72 1.0
e 406 8 1.0
e 407 28 1.0
e 407 38 1.0
e 408 206 2.0
e 408 485 1.0
e 409 47 5.0
e 409 475 1.0
e 410 336 1.0
e 410 176 1.0
e 411 220 2.0
e 411 406 2.0
e 412 213 1.0
e 412 30 1.0
e 413 308 1.0
e 413 270 1.0
e 414 181 2.0
e 414 82 1.0
e 415 495 1.0
e 415 175 43.0
e 416 470 2.0
e 416 292 1.0
e 417 312 48.0
e 417 24 1.0
e 418 503 1.0
e 418 336 2.0
e 419 574 5.0
e 419 595 1.0
e 420 385 1.0
e 420 481 1.0
e 421 498 1.0
e 421 618 1.0
e 422 312 12.0
e 422 634 21.0
e 423 513 1.0
e 423 45 1.0
e 424 264 1.0
e 424 292 1.0
e 425 399 1.0
e 426 256 1.0
e 426 499 2.0
e 427 536 2.0
e 427 213 1.0
e 428 76 1.0
e 428 181 1.0
e 429 544 1.0
e 429 167 1.0
e 430 229 1.0
e 430 108 1.0
e 431 282 1.0
e 431 292 1.0
e 432 196 1.0
e 432 306 1.0
e 433 597 12.0
e 433 175 35.0
e 434 105 1.0
e 434 382 1.0
e 435 214 1.0
e 435 446 1.0
e 436 551 1.0
e 436 380 1.0
e 437 461 1.0
e 437 348 1.0
e 438 271 1.0
e 438 433 1.0
e 439 156 34.0
e 439 550 44.0
e 439 44 31.0
e 439 384 43.0
e 439 363 4.0
e 439 121 47.0
e 439 22 6.0
e 439 494 42.0
e 439 16 33.0
e 439 276 9.0
e 439 489 19.0
e 439 49 32.0
e 439 185 41.0
e 439 165 10.0
e 440 621 1.0
e 440 35 1.0
e 441 508 1.0
e 441 150 2.0
e 442 534 1.0
e 442 129 1.0
e 443 591 1.0
e 443 581 7.0
e 444 10 1.0
e 444 495 1.0
e 445 614 1.0
e 445 188 1.0
e 446 128 31.0
e 446 224 1.0
e 447 631 1.0
e 447 436 1.0
e 448 160 1.0
e 448 469 1.0
e 449 487 1.0
e 449 564 1.0
e 450 420 1.0
e 450 249 2.0
e 451 320 19.0
e 451 216 1.0
e 452 325 1.0
e 452 611 1.0
e 453 33 38.0
e 453 510 39.0
e 453 231 38.0
e 453 55 43.0
e 453 615 46.0
e 453 260 20.0
e 453 580 26.0
e 453 370 39.0
e 453 599 42.0
e 453 557 40.0
e 453 233 20.0
e 453 56 10.0
e 453 276 46.0
e 453 589 27.0
e 454 487 2.0
e 454 221 1.0
e 455 457 1.0
e 455 508 2.0
e 456 302 1.0
e 456 96 1.0
e 457 211 2.0
e 457 137 1.0
e 458 187 1.0
e 458 111 1.0
e 459 145 1.0
e 459 266 2.0
e 460 250 1.0
e 460 288 1.0
e 461 95 1.0
e 461 213 1.0
e 462 559 1.0
e 462 612 1.0
e 463 470 1.0
e 463 634 39.0
e 464 134 1.0
e 464 313 1.0
e 465 200 1.0
e 465 261 25.0
e 466 632 1.0
e 466 351 1.0
e 467 19 1.0
e 467 250 1.0
e 468 454 1.0
e 468 105 1.0
e 469 63 1.0
e 469 108 1.0
e 470 378 18.0
e 470 476 1.0
e 471 478 1.0
e 471 526 31.0
e 472 182 1.0
e 472 145 1.0
e 473 547 2.0
e 473 128 10.0
e 474 526 28.0
e 474 576 1.0
e 475 151 1.0
e 475 137 1.0
e 476 434 1.0
e 476 596 1.0
e 477 557 1.0
e 477 537 1.0
e 478 135 2.0
e 478 476 2.0
e 479 162 1.0
e 479 253 1.0
e 480 149 1.0
e 480 252 3.0
e 481 622 1.0
e 482 365 1.0
e 482 188 1.0
e 483 271 1.0
e 483 485 1.0
e 484 147 2.0
e 484 162 1.0
e 485 138 1.0
e 485 208 1.0
e 486 515 1.0
e 486 576 2.0
e 487 36 1.0
e 487 375 1.0
e 488 221 1.0
e 488 412 2.0
e 489 286 1.0
e 489 285 1.0
e 490 121 14.0
e 490 289 42.0
e 490 312 32.0
e 490 314 22.0
e 490 242 41.0
e 490 344 1.0
e 490 465 7.0
e 490 613 4.0
e 490 488 6.0
e 490 366 13.0
e 490 231 13.0
e 490 428 12.0
e 490 29 9.0
e 490 110 26.0
e 490 520 33.0
e 490 277 5.0
e 491 213 1.0
e 491 300 2.0
e 492 37 1.0
e 492 213 1.0
e 493 473 2.0
e 493 283 4.0
e 494 321 44.0
e 494 123 29.0
e 494 50 7.0
e 494 79 25.0
e 494 67 14.0
e 494 65 39.0
e 494 290 6.0
e 494 243 22.0
e 494 604 48.0
e 494 115 29.0
e 494 368 11.0
e 494 463 24.0
e 495 54 1.0
e 495 503 1.0
e 496 194 1.0
e 496 628 22.0
e 497 524 2.0
e 497 116 1.0
e 498 380 1.0
e 498 162 2.0
e 499 133 1.0
e 499 54 1.0
e 500 579 1.0
e 500 332 2.0
e 501 42 1.0
e 501 51 1.0
e 502 462 1.0
e 502 208 3.0
e 503 421 1.0
e 503 504 1.0
e 504 20 1.0
e 504 447 1.0
e 505 379 1.0
e 505 405 1.0
e 506 280 1.0
e 506 421 1.0
e 507 86 1.0
e 507 141 1.0
e 508 340 1.0
e 508 202 1.0
e 509 166 2.0
e 509 470 1.0
e 510 630 1.0
e 510 101 2.0
e 511 477 1.0
e 511 332 1.0
e 512 16 2.0
e 512 421 1.0
e 513 339 1.0
e 513 142 1.0
e 514 635 2.0
e 514 412 1.0
e 515 633 1.0
e 515 26 1.0
e 516 431 1.0
e 516 210 2.0
e 517 583 1.0
e 517 355 1.0
e 518 499 2.0
e 518 483 1.0
e 519 75 1.0
e 519 221 2.0
e 520 308 1.0
e 520 400 48.0
e 521 9 2.0
e 521 580 30.0
e 522 285 1.0
e 522 402 1.0
e 523 307 1.0
e 523 599 1.0
e 524 441 1.0
e 524 577 1.0
e 525 207 2.0
e 525 303 1.0
e 526 65 49.0
e 526 137 27.0
e 526 344 35.0
e 526 166 11.0
e 526 520 32.0
e 526 27 48.0
e 526 168 44.0
e 526 20 38.0
e 526 169 17.0
e 526 246 9.0
e 526 522 19.0
e 527 279 2.0
e 527 334 13.0
e 528 606 2.0
e 528 41 1.0
e 529 403 2.0
e 529 197 1.0
e 530 427 3.0
e 530 406 1.0
e 531 543 2.0
e 531 31 1.0
e 532 445 1.0
e 532 254 1.0
e 533 506 1.0
e 533 503 1.0
e 534 282 1.0
e 534 13 1.0
e 535 483 1.0
e 535 421 1.0
e 536 152 1.0
e 536 66 1.0
e 537 281 3.0
e 537 337 41.0
e 538 222 1.0
e 538 200 1.0
e 539 291 41.0
e 539 591 49.0
e 539 396 18.0
e 539 390 15.0
e 539 437 24.0
e 539 257 39.0
e 539 571 28.0
e 539 523 15.0
e 539 16 34.0
e 539 290 37.0
e 539 603 2.0
e 539 55 23.0
e 539 185 30.0
e 539 171 21.0
e 539 121 14.0
e 540 166 2.0
e 540 173 1.0
e 541 629 2.0
e 541 226 2.0
e 542 75 1.0
e 542 430 1.0
e 543 539 38.0
e 543 225 1.0
e 544 477 1.0
e 545 359 1.0
e 545 215 1.0
e 546 8 1.0
e 546 13 1.0
e 547 326 1.0
e 547 118 1.0
e 548 14 1.0
e 548 401 2.0
e 549 79 33.0
e 549 471 1.0
e 550 197 1.0
e 550 7 1.0
e 551 461 2.0
e 551 529 1.0
e 552 134 1.0
e 552 79 21.0
e 553 384 2.0
e 553 188 2.0
e 554 504 2.0
e 554 609 1.0
e 555 395 1.0
e 555 40 1.0
e 556 603 1.0
e 556 86 1.0
e 557 75 1.0
e 557 34 1.0
e 558 517 1.0
e 558 282 1.0
e 559 58 1.0
e 559 226 1.0
e 560 388 3.0
e 560 416 1.0
e 561 331 1.0
e 561 12 2.0
e 562 460 1.0
e 562 430 1.0
e 563 440 1.0
e 563 516 1.0
e 564 223 1.0
e 564 151 3.0
e 565 218 1.0
e 565 550 1.0
e 566 201 1.0
e 566 584 8.0
e 567 382 1.0
e 567 156 1.0
e 568 250 1.0
e 568 603 1.0
e 569 118 1.0
e 569 212 1.0
e 570 42 1.0
e 570 103 1.0
e 571 630 1.0
e 571 82 1.0
e 572 216 2.0
e 572 451 1.0
e 573 58 2.0
e 573 74 2.0
e 574 511 3.0
e 574 540 1.0
e 575 143 1.0
e 575 37 1.0
e 576 215 1.0
e 576 489 2.0
e 577 620 1.0
e 577 511 1.0
e 578 2 1.0
e 578 386 1.0
e 579 410 1.0
e 579 414 1.0
e 580 389 6.0
e 580 123 20.0
e 580 526 43.0
e 580 597 45.0
e 580 455 12.0
e 580 174 7.0
e 580 290 32.0
e 580 50 43.0
e 581 431 42.0
e 581 618 38.0
e 581 407 2.0
e 581 172 22.0
e 581 29 21.0
e 581 207 41.0
e 581 45 17.0
e 581 568 42.0
e 581 59 47.0
e 581 255 9.0
e 581 326 23.0
e 581 27 35.0
e 581 383 25.0
e 582 532 1.0
e 582 355 2.0
e 583 84 1.0
e 583 182 1.0
e 584 468 1.0
e 584 160 4.0
e 585 546 1.0
e 585 408 1.0
e 586 149 1.0
e 586 296 1.0
e 587 138 14.0
e 587 1 19.0
e 587 291 16.0
e 587 237 46.0
e 587 526 9.0
e 587 464 24.0
e 587 417 1.0
e 587 238 27.0
e 587 17 20.0
e 587 370 37.0
e 587 244 26.0
e 587 465 7.0
e 587 25 32.0
e 587 258 25.0
e 587 279 48.0
e 587 573 29.0
e 587 344 47.0
e 588 612 1.0
e 588 146 1.0
e 589 106 22.0
e 589 355 31.0
e 589 172 9.0
e 589 279 2.0
e 589 314 2.0
e 589 301 12.0
e 589 615 11.0
e 589 539 33.0
e 589 481 18.0
e 589 175 42.0
e 589 624 8.0
e 589 71 15.0
e 589 312 5.0
e 589 238 41.0
e 589 580 38.0
e 589 32 6.0
e 590 328 1.0
e 590 451 1.0
e 591 80 2.0
e 591 331 2.0
e 592 424 1.0
e 592 290 44.0
e 593 268 1.0
e 593 622 2.0
e 594 346 1.0
e 594 309 1.0
e 595 316 2.0
e 595 502 2.0
e 596 328 1.0
e 596 42 1.0
e 597 608 22.0
e 597 484 46.0
e 597 361 29.0
e 597 560 25.0
e 597 398 42.0
e 597 128 13.0
e 597 372 8.0
e 597 50 36.0
e 597 238 9.0
e 597 439 20.0
e 597 490 43.0
e 597 124 8.0
e 597 244 35.0
e 597 140 27.0
e 597 22 32.0
e 598 185 29.0
e 598 93 1.0
e 599 606 1.0
e 599 617 2.0
e 600 416 1.0
e 600 262 2.0
e 601 605 1.0
e 601 623 2.0
e 602 329 2.0
e 602 286 1.0
e 603 359 2.0
e 603 579 2.0
e 604 153 1.0
e 604 151 2.0
e 605 586 1.0
e 605 545 1.0
e 606 511 1.0
e 606 342 2.0
e 607 60 2.0
e 607 34 1.0
e 608 1 1.0
e 608 339 1.0
e 609 426 1.0
e 609 365 1.0
e 610 637 48.0
e 610 411 1.0
e 610 107 23.0
e 610 465 19.0
e 610 46 25.0
e 610 490 30.0
e 610 175 48.0
e 610 556 28.0
e 610 634 8.0
e 610 580 43.0
e 610 179 49.0
e 610 79 27.0
e 610 581 10.0
e 610 186 16.0
e 610 189 25.0
e 611 107 4.0
e 611 498 1.0
e 612 591 2.0
e 612 125 1.0
e 613 271 1.0
e 613 239 1.0
e 614 537 2.0
e 614 178 1.0
e 615 248 1.0
e 615 63 1.0
e 616 530 2.0
e 616 143 1.0
e 617 526 49.0
e 617 259 1.0
e 618 176 2.0
e 618 622 1.0
e 619 461 1.0
e 619 511 1.0
e 620 398 1.0
e 620 435 1.0
e 621 147 2.0
e 621 251 1.0
e 622 202 2.0
e 622 359 1.0
e 623 3 1.0
e 623 408 2.0
e 624 424 1.0
e 624 350 1.0
e 625 474 47.0
e 625 21 17.0
e 625 244 16.0
e 625 490 49.0
e 625 597 23.0
e 625 500 36.0
e 625 409 4.0
e 625 322 33.0
e 625 27 42.0
e 625 312 17.0
e 625 624 16.0
e 625 246 3.0
e 625 175 4.0
e 625 192 8.0
e 625 530 4.0
e 626 510 1.0
e 626 76 1.0
e 627 53 1.0
e 627 165 41.0
e 628 110 19.0
e 628 446 32.0
e 628 494 14.0
e 628 432 15.0
e 628 68 33.0
e 628 80 6.0
e 628 587 14.0
e 628 258 44.0
e 628 191 23.0
e 628 69 28.0
e 628 29 45.0
e 628 260 3.0
e 628 439 3.0
e 628 103 35.0
e 628 400 5.0
e 629 288 3.0
e 629 592 1.0
e 630 170 1.0
e 630 305 4.0
e 631 570 1.0
e 631 364 1.0
e 632 406 1.0
e 632 484 1.0
e 633 187 1.0
e 633 195 1.0
e 634 0 4.0
e 634 623 16.0
e 634 314 6.0
e 634 320 23.0
e 634 192 17.0
e 634 467 25.0
e 634 291 33.0
e 634 261 32.0
e 634 439 2.0
e 634 322 3.0
e 634 494 32.0
e 634 353 25.0
e 634 323 48.0
e 635 24 2.0
e 635 333 2.0
e 636 306 1.0
e 636 307 1.0
e 637 484 2.0
e 637 377 2.0
e 638 635 1.0
e 638 3 1.0
e 639 271 1.0
e 639 526 45.0
